122 5
10 10 10 10 10 

0 0 0 0 0 0 5 2 14 26 38 50 
0 0 0 0 0 0 5 3 4 5 7 8 
1 0 0 0 1 0 2 12 6 
1 0 0 0 5 0 2 10 6 
5 0 0 0 4 0 2 10 6 
7 0 0 0 1 0 1 9 
5 0 0 0 3 0 1 11 
3 0 0 0 2 0 1 9 
1 0 0 0 2 0 1 13 
2 0 0 0 2 0 1 13 
7 0 0 0 2 0 1 13 
6 0 0 0 3 0 1 13 
0 0 0 0 0 0 1 62 
0 0 0 0 0 0 5 15 16 17 18 24 
1 0 0 0 1 0 3 22 21 19 
1 0 0 0 3 0 3 23 22 20 
4 0 0 0 1 0 3 22 21 20 
5 0 0 0 5 0 2 21 20 
5 0 0 0 1 0 1 20 
1 0 0 0 3 0 1 25 
10 0 0 0 3 0 1 25 
1 0 0 0 2 0 1 25 
6 0 0 0 3 0 1 25 
8 0 0 0 3 0 1 25 
0 0 0 0 0 0 1 62 
0 0 0 0 0 0 3 27 28 36 
9 1 0 0 0 0 4 35 34 33 30 
4 2 0 0 0 0 2 32 29 
9 1 0 0 0 0 2 31 30 
8 3 0 0 0 0 1 37 
7 3 0 0 0 0 1 37 
10 5 0 0 0 0 1 37 
8 5 0 0 0 0 1 37 
9 2 0 0 0 0 1 37 
2 1 0 0 0 0 1 37 
6 2 0 0 0 0 1 37 
0 0 0 0 0 0 1 62 
0 0 0 0 0 0 5 39 40 41 47 48 
3 0 0 1 0 0 2 46 44 
10 0 0 2 0 0 2 43 42 
2 0 0 4 0 0 2 46 45 
5 0 0 3 0 0 1 45 
4 0 0 2 0 0 1 45 
3 0 0 4 0 0 1 45 
4 0 0 1 0 0 1 49 
7 0 0 1 0 0 1 49 
1 0 0 3 0 0 1 49 
1 0 0 4 0 0 1 49 
0 0 0 0 0 0 1 62 
0 0 0 0 0 0 4 51 52 59 60 
4 0 0 1 0 0 4 58 57 55 53 
4 0 0 3 0 0 3 56 55 53 
10 0 0 2 0 0 1 54 
9 0 0 5 0 0 1 61 
8 0 0 4 0 0 1 61 
3 0 0 1 0 0 1 61 
10 0 0 2 0 0 1 61 
6 0 0 4 0 0 1 61 
9 0 0 2 0 0 1 61 
8 0 0 1 0 0 1 61 
0 0 0 0 0 0 1 62 
0 0 0 0 0 0 2 63 75 
0 0 0 0 0 0 5 64 65 67 72 73 
7 0 1 0 0 0 3 71 70 68 
7 0 2 0 0 0 2 68 66 
5 0 3 0 0 0 1 69 
4 0 4 0 0 0 1 68 
7 0 5 0 0 0 1 74 
6 0 4 0 0 0 1 74 
5 0 2 0 0 0 1 74 
5 0 1 0 0 0 1 74 
4 0 1 0 0 0 1 74 
7 0 2 0 0 0 1 74 
0 0 0 0 0 0 1 87 
0 0 0 0 0 0 8 76 78 79 80 81 83 84 85 
6 0 1 0 0 0 1 77 
6 0 4 0 0 0 1 82 
9 0 1 0 0 0 1 82 
4 0 4 0 0 0 1 82 
10 0 1 0 0 0 1 82 
1 0 2 0 0 0 1 82 
8 0 2 0 0 0 1 86 
4 0 3 0 0 0 1 86 
3 0 5 0 0 0 1 86 
2 0 2 0 0 0 1 86 
0 0 0 0 0 0 1 87 
0 0 0 0 0 0 6 88 89 90 91 92 94 
2 0 0 1 0 0 3 97 96 93 
1 0 0 1 0 0 3 97 96 93 
5 0 0 2 0 0 3 97 96 93 
1 0 0 4 0 0 2 97 93 
10 0 0 3 0 0 2 96 95 
7 0 0 2 0 0 1 95 
6 0 0 2 0 0 1 96 
8 0 0 4 0 0 1 98 
6 0 0 3 0 0 1 98 
9 0 0 3 0 0 1 98 
0 0 0 0 0 0 1 99 
0 0 0 0 0 0 5 100 101 103 105 109 
5 0 0 0 1 0 2 108 102 
8 0 0 0 3 0 2 104 102 
1 0 0 0 2 0 2 107 106 
10 0 0 0 1 0 1 104 
7 0 0 0 3 0 1 106 
8 0 0 0 4 0 1 107 
6 0 0 0 2 0 1 110 
4 0 0 0 3 0 1 110 
9 0 0 0 1 0 1 110 
2 0 0 0 5 0 1 110 
0 0 0 0 0 0 1 111 
0 0 0 0 0 0 5 112 113 114 115 116 
6 0 0 0 0 1 4 121 119 118 117 
3 0 0 0 0 1 3 119 118 117 
7 0 0 0 0 4 2 121 117 
7 0 0 0 0 4 1 118 
7 0 0 0 0 2 1 117 
6 0 0 0 0 3 1 120 
5 0 0 0 0 2 1 120 
7 0 0 0 0 2 1 120 
4 0 0 0 0 3 1 122 
5 0 0 0 0 3 1 122 
0 0 0 0 0 0 0 
